JulietBench/Juliet_Based_Patch_Bench/linux/CWE-189-Numeric-Errors/CVE_2013_6376_17d68b763f09a9ce824ae23eb62c9efc57b69271/solverrecalculate_apic_map_Snippet_patch2.smt2
; benchmark generated from python API
(set-info :status unknown)
(declare-fun R () (_ BitVec 32))
(declare-fun rsi () (_ BitVec 64))
(assert
 (let (($x91 (and (distinct (_ bv65535 32) R) true)))
 (let (($x86 (= (_ bv0 32) R)))
 (let ((?x32 ((_ extract 15 0) rsi)))
 (let ((?x27 (bvand ?x32 (_ bv1024 16))))
 (let (($x14 (= (_ bv0 16) ?x27)))
 (let (($x87 (and $x14 $x86)))
 (let (($x10 (= (_ bv65535 32) R)))
 (let (($x74 (and (distinct (_ bv0 16) ?x27) true)))
 (let (($x11 (and $x74 $x10)))
 (let (($x88 (or $x11 $x87)))
 (let (($x90 (not $x88)))
 (let (($x92 (and $x90 $x91)))
 (let (($x89 (and $x88 $x10)))
 (let (($x93 (or $x89 $x92)))
 (not $x93))))))))))))))))
(check-sat)
